20 20
10 10
6 10
10 7
9 1
9 3
1 10
8 10
10 10
10 9
3 2
3 5
1 1
3 2
8 10
7 4
3 8
3 3
6 7
2 2
1 8
10 15 78
10 13 65
16 15 95
18 15 57
20 19 61
12 19 99
16 13 63
13 15 90
13 10 90
14 15 74
12 12 77
15 16 70
15 13 76
11 10 71
11 13 85
12 14 53
16 17 100
18 14 83
17 19 96
12 12 56
